bcc Hf-Nb-Ti-V-Zr 20% each              
   3.40000000000000     
     3.0000000000000000    0.0000000000000000    0.0000000000000000
     0.0000000000000000    4.0000000000000000    0.0000000000000000
     0.0000000000000000    0.0000000000000000    5.0000000000000000
   Hf   Nb   Ti   V    Zr
    24    24    24    24    24
Direct
  0.0020627597861753 -0.0005469963284158 -0.0013016588361468
  0.1734542107329562  0.3758175868883554  0.6973979837934355
 -0.0056229207433546  0.5072578572297106  0.3962561456634157
  0.1730333143732849  0.6248355256176757  0.5058226617233157
 -0.0175927795934192  0.5074325757638442  0.6030449290717843
 -0.0198614286531304  0.5090851009728847  0.1997251923712220
 -0.0029670529704409  0.5063439479706260  0.8032240268985825
 -0.0042910533187892  0.7511954010253954  0.6172663965502525
  0.1851166244834039  0.8661641731385749  0.9041685702502738
  0.5106167498554817  0.1228417596460993  0.2990482560879046
  0.3303583954417760  0.2619458600461487 -0.0008600502057743
  0.3285249478312582  0.2528156115280994  0.3990725029877233
  0.5193057312689451  0.6027097623504084  0.2800986842452124
  0.3343889980489911  0.4953701598449875  0.3964806885737842
  0.4746258165396033  0.8699552547172691  0.0757491960194310
  0.3530996114028301  0.7429607226151030  0.3919125859992076
  0.8372633912052260  0.1228616411259700  0.3091583010506876
  0.6582791348131215 -0.0055433046407444  0.4068315554046957
  0.6699136084760486  0.0000335303458007  0.6007606044436531
  0.6682502296540260 -0.0064582875191036  0.7983864072023498
  0.7988695342618397  0.1393940691294605  0.9132730059959148
  0.6680659309122152  0.5056098404269761  0.4126188786186689
  0.6674338472947974  0.4979352448480023  0.8120328513039262
  0.8573263626895310  0.8634166059743849  0.2991158944379572
  0.1928289839022168  0.1149867497892651  0.0974459708245721
 -0.0077560190558378  0.0043380651238679  0.6012137366188983
  0.1583380132288892  0.3732462023707143  0.2955528808907284
  0.0189474638591291  0.2447558230564094  0.4011436852136429
 -0.0000274608553082  0.2444551842146852  0.5979187305075258
  0.1682313783081910  0.3797401302592671  0.9008433198394410
  0.1593208840787236  0.6280927809695253  0.0991265459140288
  0.1860504876261315  0.6234782579937931  0.6998827827142805
  0.1611612531662438  0.6329088669459382  0.9085035569868987
 -0.0048515789705899  0.7448710772464572  0.0043489643348720
 -0.0027107162913187  0.7476278327203969  0.8052709545931472
  0.3320160369677939  0.0073195928694580  0.4018661501802496
  0.3459850922485433  0.0038904021371408  0.6016012236885725
  0.4866401739241257  0.1338805278349567  0.7110049413420624
  0.5010409088285848  0.6227553878499064  0.0999844752538687
  0.4793552572698385  0.8815793562715362  0.5050392135907626
  0.5040420802536021  0.8698330463263518  0.7009497724329851
  0.3359690005194951  0.7484203339749974  0.7942790150790783
  0.6817570921381951 -0.0268631585007712 -0.0044110471345952
  0.8474985249765667  0.1285313053980069  0.6941734628606655
  0.6472868509817608  0.2429755342626271  0.4195374636303943
  0.8432306699030068  0.3695986915120049  0.6963570308955837
  0.8389255388197686  0.6477039410848751  0.4953680894310570
  0.8330865411350930  0.8603610760714038  0.8993517111297121
  0.1937440052746187  0.1166991059632334  0.8928541952953756
  0.1604097505653633  0.3820959608158544  0.5081060967922685
  0.1487914345336928  0.6394993514771633  0.2941764898237341
  0.1713789654836780  0.8652030885066827  0.0923225371882389
  0.1772310248084294  0.8816083094984589  0.7059685539597113
  0.3242797523304197 -0.0067162100837956  0.2022406410963676
  0.3650967257488590 -0.0155071584784176  0.7996964844797660
  0.5144032942552510  0.3773603293175689  0.2999637888598494
  0.5197003784444801  0.3594658408706998  0.9042559027235616
  0.3539567089983868  0.5107857153101271 -0.0038360963651483
  0.3408998532774560  0.4863551305495472  0.1893208718766937
  0.4769224905476897  0.6197064030173889  0.5149200577602860
  0.4940588037189044  0.6273164736393014  0.6996074448029455
  0.5006724521981479  0.6535136587766854  0.9033668780734589
  0.3378131962034090  0.7582381535560490  0.6105137962142569
  0.8043820317268061  0.1204024471707517  0.0888621555406039
  0.8470018958983236  0.3560938702107326  0.4953462906981355
  0.6816275066096580  0.2543630396799086  0.7870983248737404
  0.8250528246021797  0.3769104286208257  0.9149554237318311
  0.6707137968913145  0.5088714827553009 -0.0009375209348360
  0.6789735032587110  0.4934162805344697  0.1762211309345457
  0.6826791497821338  0.7443811716443620  0.0041568407054786
  0.6865362383015849  0.7448613318606685  0.1882344359244621
  0.6567041510885614  0.7622031514130514  0.5959602869631975
  0.1498856016233166  0.1213083809770514  0.3132664443588484
  0.0173336365703690  0.0225270006490083  0.4096075828970276
  0.1564206211651005  0.1166774050270474  0.4961421350416226
 -0.0277233197393030  0.5161788727853434 -0.0021380176354931
 -0.0179549402489127  0.7347290402253231  0.1903097021551705
 -0.0087172773940364  0.7256593209385342  0.3955812777472926
  0.3057459736661639  0.0048025844313698 -0.0004899813733307
  0.4913433620127070  0.1129299314436683  0.4927432646166462
  0.5132686088234799  0.3913692385778635  0.0844411755989544
  0.4909954027662076  0.3889833122654924  0.5087288419720384
  0.3235276719636607  0.2575072292732863  0.8158349278167274
  0.3414536370463934  0.4924942142371566  0.5939170949717192
  0.3244678413097890  0.7257232765712355  0.0047455022569296
  0.4795769989968438  0.8978802852321545  0.3042324888243954
  0.5108513091002453  0.8578740425189069  0.8958874593595170
  0.8594198830699603  0.1249215341222117  0.4988550986530069
  0.6602669194573255  0.2772189289432265  0.0154080006966703
  0.8307979893888205  0.3840184755452334  0.0808688813094477
  0.8408273532599833  0.6319887871052516  0.0922451443728880
  0.8422215562613677  0.6418234106674132  0.2970316146313367
  0.8444842494170818  0.6219167741233249  0.9112802947350340
  0.8505528670690868  0.8557978063968437  0.0980493042912737
  0.8159365242190233  0.8569788683479399  0.7132294782039761
  0.6595689038431924  0.7669977982963475  0.8107186889341735
  0.1763173206762230  0.1199291523833719  0.7021502202273939
 -0.0144274313586526 -0.0051622749453274  0.8012844751639956
  0.0024819802722453  0.2452369364855025  0.0044296711310500
  0.1484367132347552  0.4057622655490903  0.0830524621851169
  0.0015618565790372  0.2492681119874026  0.1962606014990443
 -0.0001797258389299  0.2517660761901916  0.8070636500082441
  0.1568437475825661  0.8738300013235336  0.3097537761545713
  0.1672299043764287  0.8800096972831291  0.5046365934160953
  0.4990017191330370  0.1134760042833859  0.0932467099255167
  0.4944562562785791  0.1212770124662348  0.9023404099036868
  0.3240493918372592  0.2560825731811441  0.1983282878522485
  0.3401147796239315  0.2422425807773222  0.5814167365748255
  0.4870554913458547  0.3702567066304000  0.7015770870476996
  0.3396909080786701  0.5053755265741211  0.8133072003137072
  0.3458680561487962  0.7578786502061649  0.2050862382903395
  0.6641445939566475 -0.0263310291558775  0.1960428267608898
  0.6686088498711638  0.2628245438805751  0.1839383120580789
  0.8139426766750679  0.3662264707955114  0.3090669592859011
  0.6688659614338579  0.2442772677945788  0.5966558460975989
  0.6694838935885435  0.5029716938492633  0.5968956530422964
  0.7981783095195325  0.6432143247696075  0.7141969110055670
  0.6547845696184440  0.7548664634262451  0.3889901305936624
  0.8557807419507596  0.8716105720854989  0.4909171892332773
  0.0041077064650374  0.0057561463507518  0.1898543963048856
 
  0.00000000E+00  0.00000000E+00  0.00000000E+00
  0.00000000E+00  0.00000000E+00  0.00000000E+00
  0.00000000E+00  0.00000000E+00  0.00000000E+00
  0.00000000E+00  0.00000000E+00  0.00000000E+00
  0.00000000E+00  0.00000000E+00  0.00000000E+00
  0.00000000E+00  0.00000000E+00  0.00000000E+00
  0.00000000E+00  0.00000000E+00  0.00000000E+00
  0.00000000E+00  0.00000000E+00  0.00000000E+00
  0.00000000E+00  0.00000000E+00  0.00000000E+00
  0.00000000E+00  0.00000000E+00  0.00000000E+00
  0.00000000E+00  0.00000000E+00  0.00000000E+00
  0.00000000E+00  0.00000000E+00  0.00000000E+00
  0.00000000E+00  0.00000000E+00  0.00000000E+00
  0.00000000E+00  0.00000000E+00  0.00000000E+00
  0.00000000E+00  0.00000000E+00  0.00000000E+00
  0.00000000E+00  0.00000000E+00  0.00000000E+00
  0.00000000E+00  0.00000000E+00  0.00000000E+00
  0.00000000E+00  0.00000000E+00  0.00000000E+00
  0.00000000E+00  0.00000000E+00  0.00000000E+00
  0.00000000E+00  0.00000000E+00  0.00000000E+00
  0.00000000E+00  0.00000000E+00  0.00000000E+00
  0.00000000E+00  0.00000000E+00  0.00000000E+00
  0.00000000E+00  0.00000000E+00  0.00000000E+00
  0.00000000E+00  0.00000000E+00  0.00000000E+00
  0.00000000E+00  0.00000000E+00  0.00000000E+00
  0.00000000E+00  0.00000000E+00  0.00000000E+00
  0.00000000E+00  0.00000000E+00  0.00000000E+00
  0.00000000E+00  0.00000000E+00  0.00000000E+00
  0.00000000E+00  0.00000000E+00  0.00000000E+00
  0.00000000E+00  0.00000000E+00  0.00000000E+00
  0.00000000E+00  0.00000000E+00  0.00000000E+00
  0.00000000E+00  0.00000000E+00  0.00000000E+00
  0.00000000E+00  0.00000000E+00  0.00000000E+00
  0.00000000E+00  0.00000000E+00  0.00000000E+00
  0.00000000E+00  0.00000000E+00  0.00000000E+00
  0.00000000E+00  0.00000000E+00  0.00000000E+00
  0.00000000E+00  0.00000000E+00  0.00000000E+00
  0.00000000E+00  0.00000000E+00  0.00000000E+00
  0.00000000E+00  0.00000000E+00  0.00000000E+00
  0.00000000E+00  0.00000000E+00  0.00000000E+00
  0.00000000E+00  0.00000000E+00  0.00000000E+00
  0.00000000E+00  0.00000000E+00  0.00000000E+00
  0.00000000E+00  0.00000000E+00  0.00000000E+00
  0.00000000E+00  0.00000000E+00  0.00000000E+00
  0.00000000E+00  0.00000000E+00  0.00000000E+00
  0.00000000E+00  0.00000000E+00  0.00000000E+00
  0.00000000E+00  0.00000000E+00  0.00000000E+00
  0.00000000E+00  0.00000000E+00  0.00000000E+00
  0.00000000E+00  0.00000000E+00  0.00000000E+00
  0.00000000E+00  0.00000000E+00  0.00000000E+00
  0.00000000E+00  0.00000000E+00  0.00000000E+00
  0.00000000E+00  0.00000000E+00  0.00000000E+00
  0.00000000E+00  0.00000000E+00  0.00000000E+00
  0.00000000E+00  0.00000000E+00  0.00000000E+00
  0.00000000E+00  0.00000000E+00  0.00000000E+00
  0.00000000E+00  0.00000000E+00  0.00000000E+00
  0.00000000E+00  0.00000000E+00  0.00000000E+00
  0.00000000E+00  0.00000000E+00  0.00000000E+00
  0.00000000E+00  0.00000000E+00  0.00000000E+00
  0.00000000E+00  0.00000000E+00  0.00000000E+00
  0.00000000E+00  0.00000000E+00  0.00000000E+00
  0.00000000E+00  0.00000000E+00  0.00000000E+00
  0.00000000E+00  0.00000000E+00  0.00000000E+00
  0.00000000E+00  0.00000000E+00  0.00000000E+00
  0.00000000E+00  0.00000000E+00  0.00000000E+00
  0.00000000E+00  0.00000000E+00  0.00000000E+00
  0.00000000E+00  0.00000000E+00  0.00000000E+00
  0.00000000E+00  0.00000000E+00  0.00000000E+00
  0.00000000E+00  0.00000000E+00  0.00000000E+00
  0.00000000E+00  0.00000000E+00  0.00000000E+00
  0.00000000E+00  0.00000000E+00  0.00000000E+00
  0.00000000E+00  0.00000000E+00  0.00000000E+00
  0.00000000E+00  0.00000000E+00  0.00000000E+00
  0.00000000E+00  0.00000000E+00  0.00000000E+00
  0.00000000E+00  0.00000000E+00  0.00000000E+00
  0.00000000E+00  0.00000000E+00  0.00000000E+00
  0.00000000E+00  0.00000000E+00  0.00000000E+00
  0.00000000E+00  0.00000000E+00  0.00000000E+00
  0.00000000E+00  0.00000000E+00  0.00000000E+00
  0.00000000E+00  0.00000000E+00  0.00000000E+00
  0.00000000E+00  0.00000000E+00  0.00000000E+00
  0.00000000E+00  0.00000000E+00  0.00000000E+00
  0.00000000E+00  0.00000000E+00  0.00000000E+00
  0.00000000E+00  0.00000000E+00  0.00000000E+00
  0.00000000E+00  0.00000000E+00  0.00000000E+00
  0.00000000E+00  0.00000000E+00  0.00000000E+00
  0.00000000E+00  0.00000000E+00  0.00000000E+00
  0.00000000E+00  0.00000000E+00  0.00000000E+00
  0.00000000E+00  0.00000000E+00  0.00000000E+00
  0.00000000E+00  0.00000000E+00  0.00000000E+00
  0.00000000E+00  0.00000000E+00  0.00000000E+00
  0.00000000E+00  0.00000000E+00  0.00000000E+00
  0.00000000E+00  0.00000000E+00  0.00000000E+00
  0.00000000E+00  0.00000000E+00  0.00000000E+00
  0.00000000E+00  0.00000000E+00  0.00000000E+00
  0.00000000E+00  0.00000000E+00  0.00000000E+00
  0.00000000E+00  0.00000000E+00  0.00000000E+00
  0.00000000E+00  0.00000000E+00  0.00000000E+00
  0.00000000E+00  0.00000000E+00  0.00000000E+00
  0.00000000E+00  0.00000000E+00  0.00000000E+00
  0.00000000E+00  0.00000000E+00  0.00000000E+00
  0.00000000E+00  0.00000000E+00  0.00000000E+00
  0.00000000E+00  0.00000000E+00  0.00000000E+00
  0.00000000E+00  0.00000000E+00  0.00000000E+00
  0.00000000E+00  0.00000000E+00  0.00000000E+00
  0.00000000E+00  0.00000000E+00  0.00000000E+00
  0.00000000E+00  0.00000000E+00  0.00000000E+00
  0.00000000E+00  0.00000000E+00  0.00000000E+00
  0.00000000E+00  0.00000000E+00  0.00000000E+00
  0.00000000E+00  0.00000000E+00  0.00000000E+00
  0.00000000E+00  0.00000000E+00  0.00000000E+00
  0.00000000E+00  0.00000000E+00  0.00000000E+00
  0.00000000E+00  0.00000000E+00  0.00000000E+00
  0.00000000E+00  0.00000000E+00  0.00000000E+00
  0.00000000E+00  0.00000000E+00  0.00000000E+00
  0.00000000E+00  0.00000000E+00  0.00000000E+00
  0.00000000E+00  0.00000000E+00  0.00000000E+00
  0.00000000E+00  0.00000000E+00  0.00000000E+00
  0.00000000E+00  0.00000000E+00  0.00000000E+00
  0.00000000E+00  0.00000000E+00  0.00000000E+00
