symm_divine                             
  0.980000000000000     
    14.1056600000000003    0.0000000000000000    0.0000000000000000
     0.0000000000000000   14.1056600000000003    0.0000000000000000
     0.0000000000000000    0.0000000000000000   14.1056600000000003
   N    B    H 
    32    32   256
Direct
  0.0069575936939825  0.0084137315389827  0.9938556521246977
  0.4865415634545212  0.9966643127688555  0.9907807740381366
  0.9866188148523326  0.5095955376745678  0.9905534422040002
  0.5118030433939575  0.5064148073755944  0.9911809931438399
  0.0049526781660629  0.0123471189599202  0.4952903341570617
  0.5089756628098827  0.9929552281241989  0.4942195534398986
  0.0106133235933805  0.5070330230505663  0.5034428295040599
  0.4929379720107662  0.4892260201981733  0.4883586516107081
  0.2581203017982618  0.2592762439797088  0.0132614850684243
  0.7380811682923579  0.2371827580786855  0.9918442743403153
  0.2586676372190894  0.7415868381902558  0.0162553879736973
  0.7676343262549516  0.7488974419042784  0.0105909998261921
  0.2417215134599660  0.2400926062944369  0.4983683926967165
  0.7607207909144846  0.2385207860869557  0.5139065300351714
  0.2434481135713918  0.7444000400710015  0.5101354114200779
  0.7468951520506621  0.7411268489517261  0.4894162882985034
  0.2363757594573920  0.9876472212096925  0.2424406874189862
  0.7333290206749431  0.0074339892366922  0.2498433373123065
  0.2405174037397668  0.4887967641040192  0.2495307400742863
  0.7563181686252268  0.4869528107886245  0.2584167628324440
  0.2382406348330177  0.0048110772122567  0.7370772709355874
  0.7415112859257086  0.9934732052353801  0.7605373265999980
  0.2535899953202806  0.5142693083058016  0.7619869322194728
  0.7403417660488710  0.5054198720829313  0.7371304230168015
  0.9949953968932237  0.2554121109461153  0.2365886327116511
  0.5015981837671958  0.2608442323525201  0.2653607902802089
  0.0077938187683788  0.7581849263491638  0.2662238480121430
  0.5127139342476987  0.7559009873503416  0.2389818511934836
  0.0081630498799062  0.2418082474397491  0.7576537361652196
  0.4870911651143320  0.2642958052456379  0.7568288678822667
  0.0107896149555979  0.7367887779594959  0.7585060937656415
  0.5142875923075876  0.7633227196070594  0.7389777233539558
  0.2468534568809527  0.0022924363632565  0.0000694347574505
  0.7472278560433379  0.9940653459169145  0.0043780363843860
  0.2477355729701733  0.4996557585185733  0.0026432332924489
  0.7472144371199979  0.5026257618933831 -0.0014407498403374
  0.2461512152910520  0.0001313825036195  0.4983326932652730
  0.7511961121179481  0.9985471222790073  0.4956019831218654
  0.2510091855818829  0.5025376282411749  0.4983666387787544
  0.7507713199272158  0.4990221655542427  0.4981225711913499
 -0.0005344993232655  0.2494092165051754  0.9978319262609248
  0.4964835563280791  0.2558959243391977  0.0035077390151352
  0.0087465114556289  0.7502018619769945  0.9997088730564568
  0.5005896254294733  0.7521738952987809  0.9962834456005771
  0.0005967232282927  0.2534367012109862  0.4918008253339319
  0.5070213034338077  0.2495228533177214  0.5041458301948364
  0.9977144438461754  0.7500565936269130  0.5087974018399184
  0.4996604514106455  0.7504801528276995  0.5003885790225661
  0.9917735974988131  0.9974651002679438  0.2456711716240471
  0.4903734410073698  0.9982702510092714  0.2524560188623675
 -0.0003778747476320  0.4988142075375293  0.2467942343654218
  0.4991515003644131  0.5012762823206895  0.2474860994802998
  0.9952704235467698  0.9962534048693873  0.7488840495662841
  0.4971925772173010  0.0056707894366319  0.7470056391851801
  0.0025802163782914  0.4906671966161240  0.7457712613272235
  0.4973700658514903  0.5062215764046024  0.7464478687829439
  0.2505023998514553  0.2451954952813425  0.2541629647929787
  0.7490454029600137  0.2479731917507645  0.2450188569342406
  0.2497471105382942  0.7462630633890712  0.2575006463167357
  0.7532935742051347  0.7469557089077070  0.2491520454083102
  0.2491143274489188  0.2508248864919924  0.7439551773160752
  0.7495679373657346  0.2486004514196460  0.7536267932026451
  0.2549390999934822  0.7540216044216481  0.7525316405899344
  0.7556636167004994  0.7491310146563632  0.7486569478348830
  0.9781577692177690  0.9816192024125784  0.0571120031265289
  0.0811542657254830  0.9954903049831807  0.9929591681253501
  0.9955436000437714  0.0827092992773801  0.9913198439122318
  0.9761262874955450  0.9769933185911428  0.9335287700902497
  0.5199785472567650  0.0432855964269327  0.0380071171040486
  0.5046027997964798  0.0136168331196604  0.9197785245775104
  0.4118103116617333  0.0019405230706181  0.9982477939974411
  0.5072909907456988  0.9259315789348023  0.0054441087671529
  0.0006072898239069  0.5834745279911250  0.9946884601858076
  0.0059048072879045  0.4847382874787377  0.9224798788313219
  0.9128924894464832  0.4979061537083497  0.0014464266490494
  0.0253825430620774  0.4742230032090541  0.0432336998780059
  0.5867541940066859  0.5035032326756975 -0.0002297036044291
  0.4967350716054297  0.5101783486901462  0.9177650613485021
  0.4860547744487397  0.5679106124209664  0.0245674661573204
  0.4814360246431554  0.4447600347516669  0.0204818077914962
  0.9813319708332591  0.9881326357412468  0.5617744162058657
  0.0781263962751050  0.9964047378137130  0.4878990435632873
  0.9962586657131035  0.0871278756793148  0.4919643856485387
  0.9662980794394119  0.9808864259410108  0.4398531244100997
  0.4826729413514067  0.0204391236977999  0.4297211719927786
  0.4925031244550461  0.9196863369661576  0.4976448630122266
  0.4798751184031056  0.0286754122735630  0.5526541668467001
  0.5839414671029204  0.0001786928980671  0.4957179811415837
  0.9920724528227657  0.4838226607166679  0.5722907934199194
  0.9710918221215071  0.4706997513059701  0.4521057794304746
  0.0840632845358281  0.4942463573260165  0.4925192518803809
  0.9980535176484371  0.5809529745675509  0.4983179472520435
  0.5283012113233628  0.5373036354776327  0.5324112082516332
  0.5138339785007905  0.4186609578806377  0.5044092681621979
  0.5081881344117158  0.5042910265590606  0.4161618477731209
  0.4187824639771458  0.4946516057614633  0.4990912975689832
  0.2474396495094013  0.3323507832564137 -0.0005296693302224
  0.2522870834355030  0.2485877182655129  0.0875592720692228
  0.3272904762960259  0.2397959800901317  0.9912212598294550
  0.2064495961004180  0.2191013317430326  0.9784607855106208
  0.7482349404506707  0.1630389258917239  0.9991847673634747
  0.7768273620800229  0.2734265460261335  0.0439414899684514
  0.6647601029153318  0.2514841058316912  0.0000272354773821
  0.7588484885666774  0.2581441153879244  0.9226751973983446
  0.2447435137204752  0.6699258593317784 -0.0016097830121424
  0.2078917747908005  0.7857262299770987  0.9847713826358634
  0.3279030634953007  0.7596836225469498  0.9932831372620228
  0.2545063870568581  0.7484661126462356  0.0911548814709377
  0.7563106726226002  0.7546313615372402  0.0849033428003537
  0.7471096790088646  0.6806405096134949  0.9877474066900326
  0.8411116460741221  0.7575286129774091  0.9972063918684042
  0.7296087971459033  0.8024827255307696  0.9755170165236573
  0.2660674918866955  0.2649561501496952  0.5645175026294356
  0.1679983845697862  0.2542134531983853  0.4921491488017942
  0.2518766500794672  0.1655199876999693  0.4948559292991570
  0.2780417364589212  0.2726026777841642  0.4421192128905575
  0.7179960073930273  0.2801929306319622  0.4697906149886129
  0.7445759825105762  0.2532463570587596  0.5860224069270749
  0.8333042281882427  0.2540614013057065  0.5021484259583956
  0.7486020325201591  0.1655060810046250  0.5002154236815703
  0.2858602820573774  0.7795393314579789  0.4602297408878910
  0.1711836625004097  0.7619478363150121  0.4994989256711181
  0.2634678971244845  0.7636917549916886  0.5799784317823988
  0.2513468010380431  0.6699790033738477  0.5022899844898988
  0.7570503653095623  0.7561821602170861  0.4163016536766445
  0.7464550507502412  0.6664355503407714  0.4987182595819928
  0.6805671051865889  0.7682145778328756  0.5113050988537842
  0.8024168227061418  0.7711874664884315  0.5289321186536726
  0.2492054934502578  0.9155112959948919  0.2593412894240675
  0.2478714751901679  0.9975698003904931  0.1688444346110508
  0.2826385443399491  0.0307456113708724  0.2813485147246499
  0.1648724541410937  0.0048445066038533  0.2582642187506786
  0.6590027350154880  0.9965253485991044  0.2537986660810772
  0.7590824937165384  0.9798227946655408  0.1852809940024172
  0.7664989065967406  0.9756920853404031  0.3088108472664897
  0.7465336130179966  0.0813814885774621  0.2513535225496051
  0.2510992122804779  0.4146207592878474  0.2557439411699944
  0.2686375976068865  0.5124011509253852  0.1843192954151770
  0.2734958688654626  0.5232135956898430  0.3067354081742759
  0.1665049274421698  0.5028197659341780  0.2515978854682176
  0.7541891399880050  0.4128204770392844  0.2454758549666072
  0.7516798178644216  0.4978886420049435  0.3327780047805928
  0.6986686830991761  0.5194436419961312  0.2246051908504042
  0.8214403317158084  0.5144738768523843  0.2335839939650221
  0.2520437678844060  0.9942690503144612  0.6637729523603859
  0.1637919491026720  0.0023232657076865  0.7485483994650324
  0.2633788614314133  0.0724682695576245  0.7570007760757739
  0.2712651422197365  0.9513849447241198  0.7766406159944548
  0.6679338149653319  0.9966668622782298  0.7451157114375585
  0.7768369542553373  0.0499575771367670  0.7272429939465190
  0.7684565571752828  0.9273500763283883  0.7374342951196505
  0.7509055788404003  0.9985671835416285  0.8349844522508417
  0.2550798205088958  0.5892413022420967  0.7542127923275862
  0.3123922077904004  0.4848525709799443  0.7267074902389868
  0.1891679929939545  0.4884411573106793  0.7347503599766854
  0.2578472458626819  0.4979891064704424  0.8353029462466844
  0.7642316625542749  0.5734285309386716  0.7582934276940202
  0.6657083404205021  0.5022438272789100  0.7450917333047218
  0.7715604983448756  0.4517196574681938  0.7778888225579910
  0.7567261609035412  0.4947688620167932  0.6643171648752990
  0.0504714921277283  0.2215509312633700  0.2727894561886052
  0.9286698834617568  0.2280927840215864  0.2580642827557017
  0.0028811641530476  0.2450334597416298  0.1623599006945881
  0.9967971715384579  0.3292072563731676  0.2506852504392809
  0.5007565238859272  0.3352878730639452  0.2535460134356264
  0.5077236297734691  0.2481422550381998  0.3395456102969623
  0.5599163038116829  0.2306495981491384  0.2301116446325341
  0.4374695210023289  0.2315891392306897  0.2409313734839042
  0.0806589827543398  0.7425132720832467  0.2567079783656934
  0.9893510302811814  0.7439638786750890  0.3376208518436273
  0.9660572502861657  0.7168906453453318  0.2207598154094256
  0.9967414449539336  0.8313334267955452  0.2518242789902396
  0.4996025241811280  0.7420248697471243  0.1662088465086218
  0.4699813440809391  0.7119544932785725  0.2808028219720564
  0.4979087987741925  0.8284509948799553  0.2526263632978833
  0.5853730445763961  0.7419265240100282  0.2535847646478161
  0.9762410273286851  0.3008918271989118  0.7254465591881304
 -0.0006411523508340  0.2464489059262975  0.8322642833652417
  0.0819404881603319  0.2420360189862421  0.7426293133443255
  0.9782774123947884  0.1776838353381982  0.7333247699284816
  0.4133965375239184  0.2499730611831168  0.7493046506348713
  0.5083932502239960  0.2469519951796027  0.8265563795346057
  0.4985921411163202  0.3378367495818475  0.7457536028845884
  0.5248999786942756  0.2250741062635490  0.7061991419025170
  0.9744467728193510  0.7727461293111050  0.7044040382054050
  0.9974493935659802  0.6629935246697914  0.7529379788056136
  0.9883286558390683  0.7602704848165139  0.8261649393761230
  0.0848174979271694  0.7485105676597438  0.7520185561706737
  0.4973669370552109  0.7465655477947482  0.6675231288925100
  0.4950248370684178  0.8346151273800463  0.7526714621048683
  0.5885386682881709  0.7555473384627897  0.7487153368851236
  0.4779158846735682  0.7180392024113371  0.7851243499874285
  0.1977811625441940  0.0561143156794416  0.0510328995063822
  0.2994769765674591  0.9523325024260280  0.0517462246855356
  0.2950004838472977  0.0519068498566913  0.9444845435914889
  0.1949745628112078  0.9474158662460778  0.9530049863191934
  0.6913236097528984  0.0471740372714837  0.0484645874620986
  0.8000828888213084  0.0425133732809089  0.9511502059164690
  0.6992647193576862  0.9370069616849445  0.9556401575280228
  0.7991062807679350  0.9494430265117687  0.0613386202007250
  0.2008191700104652  0.5593274991491208  0.9562191414008095
  0.3025470462505924  0.5403307803249915  0.0595558197955099
  0.2978942094512904  0.4508453151598276  0.9473288283783511
  0.1905318970109668  0.4479100835056959  0.0463599797306670
  0.8047570784843517  0.4561607359126638  0.0480694487493187
  0.6978203657640806  0.4457626524143189  0.9516472691215385
  0.7897194758866363  0.5565369353992067  0.9419647865718495
  0.6969052772670253  0.5512669870969780  0.0537747948079720
  0.2977559898516173  0.0497889121601472  0.4456958022722619
  0.1944372271518832  0.9476836388265738  0.4485160518448510
  0.1950031984718788  0.0528451775672169  0.5485057705387482
  0.2975718199540290  0.9498979411389386  0.5506306642493450
  0.6992128680233355  0.9431919162644705  0.5416515277905941
  0.8011105811932858  0.9519501596184158  0.4383013123843770
  0.8037795848098344  0.0425134602743872  0.5519844474200326
  0.7009074999340507  0.0564696584619698  0.4494197882252682
  0.2978306701285994  0.5548505927444207  0.4430209931671816
  0.2048554539288955  0.5528149231338479  0.5551423203534566
  0.3052941518004706  0.4501118520549098  0.5449533248022154
  0.1964856471231742  0.4517257068928940  0.4498498127680967
  0.8011678780174171  0.4526981284991930  0.5548677980554318
  0.7014569860460221  0.4429676877861173  0.4501375817192816
  0.8050487687679350  0.5464779119410647  0.4458241578364518
  0.6961071888982635  0.5538230560929845  0.5420443679664075
  0.9478414849655166  0.1959425853670643  0.9485930168331579
  0.9465864246336829  0.3028115010963067  0.0449518427321704
  0.0525888229212022  0.2979149558119641  0.9460732754161266
  0.0505489564298062  0.1995815288101759  0.0512634781325269
  0.5426703263984920  0.2026422501136431  0.0575242636587399
  0.4411098858349742  0.2056888202904940  0.9546565157516090
  0.5509890608380982  0.2999390779402835  0.9485375045005386
  0.4507509732264913  0.3148498479648124  0.0520076521334222
  0.0591192025672848  0.6950629222311269  0.9515619399146514
  0.9609320668768701  0.7040140929223230  0.0588206833128917
  0.9532603813426884  0.7942612046586619  0.9448464065815021
  0.0595177056273106  0.8089231537918236  0.0422200720367698
  0.5485840685251899  0.8117047381640651  0.0418427013994077
  0.4391175121345193  0.7941194834641319  0.9474233187720112
  0.4595195312327816  0.6975151235918791  0.0540634405788993
  0.5543608650195565  0.7055480182067032  0.9433523474087182
  0.0572456025305510  0.2999959319255727  0.4414992022723283
  0.9533173394047292  0.2001793120803885  0.4383401261673047
  0.9469232029113853  0.3095557949733229  0.5348214639644998
  0.0443394496182944  0.2049507850776675  0.5520447143765040
  0.5574135948562079  0.3090330799775515  0.5476709646297984
  0.4702165374727382  0.1935026598791709  0.5622290455360782
  0.5594175806042425  0.2040598791129880  0.4481677950707551
  0.4425191878364546  0.2915943952931261  0.4594678568380397
  0.9409570459927393  0.7979827546167537  0.5576653086996433
  0.0460458817617632  0.6975209905652350  0.5614830724148683
  0.0512736427960005  0.8050410842103780  0.4636907951106070
  0.9513979006220182  0.6995763696881603  0.4512590367105716
  0.4433605564511274  0.8036374936952387  0.4562197277701026
  0.5595464979437219  0.8007755203460906  0.5438019321641627
  0.5415182051039424  0.6969365311243416  0.4435403762080155
  0.4534123938894357  0.7019053539318565  0.5591311041871735
  0.0348810430285092  0.9407757855314162  0.1919536076949608
  0.9384837307500118  0.0491971115880960  0.1973636700463308
  0.0512576580350113  0.0477247945141946  0.2894174048930605
  0.9432008008327245  0.9515758951993596  0.3047934072024304
  0.5471263055453601  0.9485118492534570  0.3003858110355635
  0.5357958808651576  0.0511507722259082  0.1971983348179457
  0.4419775321676849  0.0483247619534443  0.3082887585312061
  0.4366651146416159  0.9451753817353260  0.2058006843603176
  0.9567574202414696  0.4443438616678149  0.3030027903843859
  0.0543978833493025  0.5507392655651578  0.2937160005713545
  0.9414767351786534  0.5500286094346722  0.2030000791547334
  0.0456064724579257  0.4506571939182103  0.1875061883221560
  0.4430484942519703  0.4498210116301536  0.2938325099171594
  0.4518389204680281  0.5561397807849361  0.1965424875087060
  0.5521321014711488  0.4505276016938700  0.1968130655099873
  0.5499673223832164  0.5483504983437475  0.3038480709272693
  0.9447057647719689  0.9487109473011319  0.8046320616738517
  0.0376301865244964  0.9411162718938526  0.6933010871228682
  0.0541482371163051  0.0440464316364679  0.7957714062976641
  0.9435525091213979  0.0519971319671769  0.7020397705505892
  0.5402065442640451  0.0569361994273774  0.8060551123273649
  0.4457083152976043  0.9469034856563975  0.7899875268746410
  0.5565243497290305  0.9620707389731845  0.6969342249675051
  0.4467590871590889  0.0567728779622419  0.6949684194773151
  0.0469704970093727  0.4424168223661773  0.8059405661332915
  0.9454087176520845  0.5454832868771309  0.7860923021768037
  0.9561641702877852  0.4362779942181118  0.6923259374698935
  0.0605578518241571  0.5377050651266049  0.6975410397541109
  0.4409735039057348  0.4570378557513664  0.6981833390663648
  0.5513608309624585  0.4520924583161544  0.7924538551888713
  0.4518780463268918  0.5572347496971626  0.8033744682276245
  0.5450237490497157  0.5575055303555310  0.6922257182540488
  0.1979269188608950  0.1921494922349061  0.3019404360686667
  0.2962840064524080  0.2999482560271526  0.3077844693431304
  0.2002799091604484  0.2938652142689592  0.1991649083674878
  0.3083499750970206  0.1960883287675091  0.2072433382202190
  0.7064804775114791  0.2965213586287894  0.3058357134047076
  0.8062703323339002  0.1941831158701363  0.2874051080978962
  0.7943690357388823  0.2998376375417823  0.1884638750827027
  0.6906335256195261  0.1999959655363779  0.1981974904729656
  0.3076083046349415  0.6961819537724762  0.2127689111919977
  0.2939439896561412  0.8039025661576717  0.3091600954824854
  0.1981040936507126  0.6943901149833952  0.3076936248654112
  0.1985714294807663  0.7917197742114337  0.2001965374545099
  0.6956422125030319  0.6944057392333036  0.2921628589356572
  0.7982970842010209  0.7979613749581560  0.3063718355386131
  0.7091532503623548  0.8010251779797766  0.1939601142974857
  0.8099168497604573  0.6952512744639723  0.2044274460758794
  0.2062714624351762  0.3039055118024775  0.8006856051142640
  0.1925531065746871  0.2033047770642203  0.6947487069220922
  0.3005697094357959  0.1945453013524116  0.7904277485168065
  0.2991954301859827  0.3004845991232503  0.6894647887360876
  0.7051146955265858  0.2992511025144925  0.6952561666682000
  0.7968835475947490  0.3027339030706173  0.8072631085298120
  0.8062584841362278  0.1942129733825868  0.7115560799237154
  0.6911797432030997  0.2007649382148253  0.8001510227237424
  0.3028110037024454  0.8035061258350075  0.6961078613868070
  0.2023345612276998  0.6995573394887290  0.7052960740243691
  0.2046781887503812  0.8063104898259548  0.8038925865703838
  0.3097624904428804  0.7063208837618692  0.8035479484165252
  0.7041445289809862  0.7059097580122431  0.6905114605609021
  0.8067107000175021  0.6914015219405828  0.7936397708309630
  0.7049092670484630  0.7932480954832803  0.8070163529687149
  0.8074392850258421  0.8064944028184889  0.7038111571086410
 
  0.00000000E+00  0.00000000E+00  0.00000000E+00
  0.00000000E+00  0.00000000E+00  0.00000000E+00
  0.00000000E+00  0.00000000E+00  0.00000000E+00
  0.00000000E+00  0.00000000E+00  0.00000000E+00
  0.00000000E+00  0.00000000E+00  0.00000000E+00
  0.00000000E+00  0.00000000E+00  0.00000000E+00
  0.00000000E+00  0.00000000E+00  0.00000000E+00
  0.00000000E+00  0.00000000E+00  0.00000000E+00
  0.00000000E+00  0.00000000E+00  0.00000000E+00
  0.00000000E+00  0.00000000E+00  0.00000000E+00
  0.00000000E+00  0.00000000E+00  0.00000000E+00
  0.00000000E+00  0.00000000E+00  0.00000000E+00
  0.00000000E+00  0.00000000E+00  0.00000000E+00
  0.00000000E+00  0.00000000E+00  0.00000000E+00
  0.00000000E+00  0.00000000E+00  0.00000000E+00
  0.00000000E+00  0.00000000E+00  0.00000000E+00
  0.00000000E+00  0.00000000E+00  0.00000000E+00
  0.00000000E+00  0.00000000E+00  0.00000000E+00
  0.00000000E+00  0.00000000E+00  0.00000000E+00
  0.00000000E+00  0.00000000E+00  0.00000000E+00
  0.00000000E+00  0.00000000E+00  0.00000000E+00
  0.00000000E+00  0.00000000E+00  0.00000000E+00
  0.00000000E+00  0.00000000E+00  0.00000000E+00
  0.00000000E+00  0.00000000E+00  0.00000000E+00
  0.00000000E+00  0.00000000E+00  0.00000000E+00
  0.00000000E+00  0.00000000E+00  0.00000000E+00
  0.00000000E+00  0.00000000E+00  0.00000000E+00
  0.00000000E+00  0.00000000E+00  0.00000000E+00
  0.00000000E+00  0.00000000E+00  0.00000000E+00
  0.00000000E+00  0.00000000E+00  0.00000000E+00
  0.00000000E+00  0.00000000E+00  0.00000000E+00
  0.00000000E+00  0.00000000E+00  0.00000000E+00
  0.00000000E+00  0.00000000E+00  0.00000000E+00
  0.00000000E+00  0.00000000E+00  0.00000000E+00
  0.00000000E+00  0.00000000E+00  0.00000000E+00
  0.00000000E+00  0.00000000E+00  0.00000000E+00
  0.00000000E+00  0.00000000E+00  0.00000000E+00
  0.00000000E+00  0.00000000E+00  0.00000000E+00
  0.00000000E+00  0.00000000E+00  0.00000000E+00
  0.00000000E+00  0.00000000E+00  0.00000000E+00
  0.00000000E+00  0.00000000E+00  0.00000000E+00
  0.00000000E+00  0.00000000E+00  0.00000000E+00
  0.00000000E+00  0.00000000E+00  0.00000000E+00
  0.00000000E+00  0.00000000E+00  0.00000000E+00
  0.00000000E+00  0.00000000E+00  0.00000000E+00
  0.00000000E+00  0.00000000E+00  0.00000000E+00
  0.00000000E+00  0.00000000E+00  0.00000000E+00
  0.00000000E+00  0.00000000E+00  0.00000000E+00
  0.00000000E+00  0.00000000E+00  0.00000000E+00
  0.00000000E+00  0.00000000E+00  0.00000000E+00
  0.00000000E+00  0.00000000E+00  0.00000000E+00
  0.00000000E+00  0.00000000E+00  0.00000000E+00
  0.00000000E+00  0.00000000E+00  0.00000000E+00
  0.00000000E+00  0.00000000E+00  0.00000000E+00
  0.00000000E+00  0.00000000E+00  0.00000000E+00
  0.00000000E+00  0.00000000E+00  0.00000000E+00
  0.00000000E+00  0.00000000E+00  0.00000000E+00
  0.00000000E+00  0.00000000E+00  0.00000000E+00
  0.00000000E+00  0.00000000E+00  0.00000000E+00
  0.00000000E+00  0.00000000E+00  0.00000000E+00
  0.00000000E+00  0.00000000E+00  0.00000000E+00
  0.00000000E+00  0.00000000E+00  0.00000000E+00
  0.00000000E+00  0.00000000E+00  0.00000000E+00
  0.00000000E+00  0.00000000E+00  0.00000000E+00
  0.00000000E+00  0.00000000E+00  0.00000000E+00
  0.00000000E+00  0.00000000E+00  0.00000000E+00
  0.00000000E+00  0.00000000E+00  0.00000000E+00
  0.00000000E+00  0.00000000E+00  0.00000000E+00
  0.00000000E+00  0.00000000E+00  0.00000000E+00
  0.00000000E+00  0.00000000E+00  0.00000000E+00
  0.00000000E+00  0.00000000E+00  0.00000000E+00
  0.00000000E+00  0.00000000E+00  0.00000000E+00
  0.00000000E+00  0.00000000E+00  0.00000000E+00
  0.00000000E+00  0.00000000E+00  0.00000000E+00
  0.00000000E+00  0.00000000E+00  0.00000000E+00
  0.00000000E+00  0.00000000E+00  0.00000000E+00
  0.00000000E+00  0.00000000E+00  0.00000000E+00
  0.00000000E+00  0.00000000E+00  0.00000000E+00
  0.00000000E+00  0.00000000E+00  0.00000000E+00
  0.00000000E+00  0.00000000E+00  0.00000000E+00
  0.00000000E+00  0.00000000E+00  0.00000000E+00
  0.00000000E+00  0.00000000E+00  0.00000000E+00
  0.00000000E+00  0.00000000E+00  0.00000000E+00
  0.00000000E+00  0.00000000E+00  0.00000000E+00
  0.00000000E+00  0.00000000E+00  0.00000000E+00
  0.00000000E+00  0.00000000E+00  0.00000000E+00
  0.00000000E+00  0.00000000E+00  0.00000000E+00
  0.00000000E+00  0.00000000E+00  0.00000000E+00
  0.00000000E+00  0.00000000E+00  0.00000000E+00
  0.00000000E+00  0.00000000E+00  0.00000000E+00
  0.00000000E+00  0.00000000E+00  0.00000000E+00
  0.00000000E+00  0.00000000E+00  0.00000000E+00
  0.00000000E+00  0.00000000E+00  0.00000000E+00
  0.00000000E+00  0.00000000E+00  0.00000000E+00
  0.00000000E+00  0.00000000E+00  0.00000000E+00
  0.00000000E+00  0.00000000E+00  0.00000000E+00
  0.00000000E+00  0.00000000E+00  0.00000000E+00
  0.00000000E+00  0.00000000E+00  0.00000000E+00
  0.00000000E+00  0.00000000E+00  0.00000000E+00
  0.00000000E+00  0.00000000E+00  0.00000000E+00
  0.00000000E+00  0.00000000E+00  0.00000000E+00
  0.00000000E+00  0.00000000E+00  0.00000000E+00
  0.00000000E+00  0.00000000E+00  0.00000000E+00
  0.00000000E+00  0.00000000E+00  0.00000000E+00
  0.00000000E+00  0.00000000E+00  0.00000000E+00
  0.00000000E+00  0.00000000E+00  0.00000000E+00
  0.00000000E+00  0.00000000E+00  0.00000000E+00
  0.00000000E+00  0.00000000E+00  0.00000000E+00
  0.00000000E+00  0.00000000E+00  0.00000000E+00
  0.00000000E+00  0.00000000E+00  0.00000000E+00
  0.00000000E+00  0.00000000E+00  0.00000000E+00
  0.00000000E+00  0.00000000E+00  0.00000000E+00
  0.00000000E+00  0.00000000E+00  0.00000000E+00
  0.00000000E+00  0.00000000E+00  0.00000000E+00
  0.00000000E+00  0.00000000E+00  0.00000000E+00
  0.00000000E+00  0.00000000E+00  0.00000000E+00
  0.00000000E+00  0.00000000E+00  0.00000000E+00
  0.00000000E+00  0.00000000E+00  0.00000000E+00
  0.00000000E+00  0.00000000E+00  0.00000000E+00
  0.00000000E+00  0.00000000E+00  0.00000000E+00
  0.00000000E+00  0.00000000E+00  0.00000000E+00
  0.00000000E+00  0.00000000E+00  0.00000000E+00
  0.00000000E+00  0.00000000E+00  0.00000000E+00
  0.00000000E+00  0.00000000E+00  0.00000000E+00
  0.00000000E+00  0.00000000E+00  0.00000000E+00
  0.00000000E+00  0.00000000E+00  0.00000000E+00
  0.00000000E+00  0.00000000E+00  0.00000000E+00
  0.00000000E+00  0.00000000E+00  0.00000000E+00
  0.00000000E+00  0.00000000E+00  0.00000000E+00
  0.00000000E+00  0.00000000E+00  0.00000000E+00
  0.00000000E+00  0.00000000E+00  0.00000000E+00
  0.00000000E+00  0.00000000E+00  0.00000000E+00
  0.00000000E+00  0.00000000E+00  0.00000000E+00
  0.00000000E+00  0.00000000E+00  0.00000000E+00
  0.00000000E+00  0.00000000E+00  0.00000000E+00
  0.00000000E+00  0.00000000E+00  0.00000000E+00
  0.00000000E+00  0.00000000E+00  0.00000000E+00
  0.00000000E+00  0.00000000E+00  0.00000000E+00
  0.00000000E+00  0.00000000E+00  0.00000000E+00
  0.00000000E+00  0.00000000E+00  0.00000000E+00
  0.00000000E+00  0.00000000E+00  0.00000000E+00
  0.00000000E+00  0.00000000E+00  0.00000000E+00
  0.00000000E+00  0.00000000E+00  0.00000000E+00
  0.00000000E+00  0.00000000E+00  0.00000000E+00
  0.00000000E+00  0.00000000E+00  0.00000000E+00
  0.00000000E+00  0.00000000E+00  0.00000000E+00
  0.00000000E+00  0.00000000E+00  0.00000000E+00
  0.00000000E+00  0.00000000E+00  0.00000000E+00
  0.00000000E+00  0.00000000E+00  0.00000000E+00
  0.00000000E+00  0.00000000E+00  0.00000000E+00
  0.00000000E+00  0.00000000E+00  0.00000000E+00
  0.00000000E+00  0.00000000E+00  0.00000000E+00
  0.00000000E+00  0.00000000E+00  0.00000000E+00
  0.00000000E+00  0.00000000E+00  0.00000000E+00
  0.00000000E+00  0.00000000E+00  0.00000000E+00
  0.00000000E+00  0.00000000E+00  0.00000000E+00
  0.00000000E+00  0.00000000E+00  0.00000000E+00
  0.00000000E+00  0.00000000E+00  0.00000000E+00
  0.00000000E+00  0.00000000E+00  0.00000000E+00
  0.00000000E+00  0.00000000E+00  0.00000000E+00
  0.00000000E+00  0.00000000E+00  0.00000000E+00
  0.00000000E+00  0.00000000E+00  0.00000000E+00
  0.00000000E+00  0.00000000E+00  0.00000000E+00
  0.00000000E+00  0.00000000E+00  0.00000000E+00
  0.00000000E+00  0.00000000E+00  0.00000000E+00
  0.00000000E+00  0.00000000E+00  0.00000000E+00
  0.00000000E+00  0.00000000E+00  0.00000000E+00
  0.00000000E+00  0.00000000E+00  0.00000000E+00
  0.00000000E+00  0.00000000E+00  0.00000000E+00
  0.00000000E+00  0.00000000E+00  0.00000000E+00
  0.00000000E+00  0.00000000E+00  0.00000000E+00
  0.00000000E+00  0.00000000E+00  0.00000000E+00
  0.00000000E+00  0.00000000E+00  0.00000000E+00
  0.00000000E+00  0.00000000E+00  0.00000000E+00
  0.00000000E+00  0.00000000E+00  0.00000000E+00
  0.00000000E+00  0.00000000E+00  0.00000000E+00
  0.00000000E+00  0.00000000E+00  0.00000000E+00
  0.00000000E+00  0.00000000E+00  0.00000000E+00
  0.00000000E+00  0.00000000E+00  0.00000000E+00
  0.00000000E+00  0.00000000E+00  0.00000000E+00
  0.00000000E+00  0.00000000E+00  0.00000000E+00
  0.00000000E+00  0.00000000E+00  0.00000000E+00
  0.00000000E+00  0.00000000E+00  0.00000000E+00
  0.00000000E+00  0.00000000E+00  0.00000000E+00
  0.00000000E+00  0.00000000E+00  0.00000000E+00
  0.00000000E+00  0.00000000E+00  0.00000000E+00
  0.00000000E+00  0.00000000E+00  0.00000000E+00
  0.00000000E+00  0.00000000E+00  0.00000000E+00
  0.00000000E+00  0.00000000E+00  0.00000000E+00
  0.00000000E+00  0.00000000E+00  0.00000000E+00
  0.00000000E+00  0.00000000E+00  0.00000000E+00
  0.00000000E+00  0.00000000E+00  0.00000000E+00
  0.00000000E+00  0.00000000E+00  0.00000000E+00
  0.00000000E+00  0.00000000E+00  0.00000000E+00
  0.00000000E+00  0.00000000E+00  0.00000000E+00
  0.00000000E+00  0.00000000E+00  0.00000000E+00
  0.00000000E+00  0.00000000E+00  0.00000000E+00
  0.00000000E+00  0.00000000E+00  0.00000000E+00
  0.00000000E+00  0.00000000E+00  0.00000000E+00
  0.00000000E+00  0.00000000E+00  0.00000000E+00
  0.00000000E+00  0.00000000E+00  0.00000000E+00
  0.00000000E+00  0.00000000E+00  0.00000000E+00
  0.00000000E+00  0.00000000E+00  0.00000000E+00
  0.00000000E+00  0.00000000E+00  0.00000000E+00
  0.00000000E+00  0.00000000E+00  0.00000000E+00
  0.00000000E+00  0.00000000E+00  0.00000000E+00
  0.00000000E+00  0.00000000E+00  0.00000000E+00