4*NH4-4*BH4, unit cell 0 from MD snapshot at step 4000
1.0
  7.052830000000000155   0.000000000000000000   0.000000000000000000
  0.000000000000000000   7.052830000000000155   0.000000000000000000
  0.000000000000000000   0.000000000000000000   7.052830000000000155
N B H
 4  4 32
Direct
  0.000000000000000000   0.000000000000000000   0.000000000000000000
  0.500000000000000000   0.500000000000000000   0.000000000000000000
  0.500000000000000000   0.000000000000000000   0.500000000000000000
  0.000000000000000000   0.500000000000000000   0.500000000000000000
  0.500000000000000000   0.000000000000000000   0.000000000000000000
  0.000000000000000000   0.500000000000000000   0.000000000000000000
  0.000000000000000000   0.000000000000000000   0.500000000000000000
  0.500000000000000000   0.500000000000000000   0.500000000000000000
  0.067660782976478817   0.908263774966928228   0.918692212913114314
  0.960798714842127310   0.928794540631207699   0.118973518431608319
  0.883289402977244453   0.043556983508747489   0.924202057897326235
  0.083776299726492809   0.119689543062855286   0.025785393948244639
  0.636124080688177718   0.510319261913302902   0.962819180385746209
  0.470760673375084981   0.399085898851950338   0.100587990919957196
  0.422928810137207400   0.473192321380212000   0.877172709394668626
  0.468976992214472810   0.627490666867059121   0.059663993035420138
  0.453920624770482284   0.983700160077585872   0.638480581553787618
  0.450607061278947563   0.879770248254955645   0.423619313098429928
  0.647044519717616895   0.018263590643755823   0.497398207528041925
  0.451310325075182650   0.122621699374577453   0.430890153314343327
  0.020401739443599354   0.494013750508661142   0.650963513936958615
  0.865811312622025486   0.491590609726875627   0.451259281735133355
  0.080079911184588237   0.394537370105333629   0.442505348916676033
  0.048349385991155458   0.634100779403445114   0.454700453576791175
  0.418042828198042504   0.132634701247584363   0.068284646021525841
  0.592723062940691880   0.903460029520065433   0.107566749801143682
  0.597801875275598582   0.061641922462330800   0.864207701022142949
  0.378654384126655585   0.899416262691714152   0.921682501917670205
  0.871350932887932750   0.397860858690766650   0.940856365458971666
  0.950031405832835851   0.568629188566858956   0.155892031992831193
  0.037117015439192436   0.624959767922947385   0.884219526062587580
  0.140048746389747070   0.424579211465468509   0.047349787248522908
  0.056047005244703074   0.882771880223967020   0.623934647510290152
  0.134398532220399325   0.084404416383210945   0.421013267014801185
  0.910180735959891241   0.124603882413159006   0.582118809045446994
  0.893505160339891802   0.932968751550796060   0.375706631238807653
  0.533684350820876063   0.663131679056492285   0.472846360964322143
  0.620596980219287886   0.444255001183921860   0.624240907550586033
  0.552583147474134506   0.416270490001885762   0.347707941351202310
  0.342247721836482666   0.493572792765457180   0.564269236604313495
