symm_divine
1.0
 14.105660000000000309   0.000000000000000000   0.000000000000000000
  0.000000000000000000  14.105660000000000309   0.000000000000000000
  0.000000000000000000   0.000000000000000000  14.105660000000000309
N B H
 32  32 256
Direct
  0.000000000000000000   0.000000000000000000   0.000000000000000000
  0.500000000000000000   0.000000000000000000   0.000000000000000000
  0.000000000000000000   0.500000000000000000   0.000000000000000000
  0.500000000000000000   0.500000000000000000   0.000000000000000000
  0.000000000000000000   0.000000000000000000   0.500000000000000000
  0.500000000000000000   0.000000000000000000   0.500000000000000000
  0.000000000000000000   0.500000000000000000   0.500000000000000000
  0.500000000000000000   0.500000000000000000   0.500000000000000000
  0.250000000000000000   0.250000000000000000   0.000000000000000000
  0.750000000000000000   0.250000000000000000   0.000000000000000000
  0.250000000000000000   0.750000000000000000   0.000000000000000000
  0.750000000000000000   0.750000000000000000   0.000000000000000000
  0.250000000000000000   0.250000000000000000   0.500000000000000000
  0.750000000000000000   0.250000000000000000   0.500000000000000000
  0.250000000000000000   0.750000000000000000   0.500000000000000000
  0.750000000000000000   0.750000000000000000   0.500000000000000000
  0.250000000000000000   0.000000000000000000   0.250000000000000000
  0.750000000000000000   0.000000000000000000   0.250000000000000000
  0.250000000000000000   0.500000000000000000   0.250000000000000000
  0.750000000000000000   0.500000000000000000   0.250000000000000000
  0.250000000000000000   0.000000000000000000   0.750000000000000000
  0.750000000000000000   0.000000000000000000   0.750000000000000000
  0.250000000000000000   0.500000000000000000   0.750000000000000000
  0.750000000000000000   0.500000000000000000   0.750000000000000000
  0.000000000000000000   0.250000000000000000   0.250000000000000000
  0.500000000000000000   0.250000000000000000   0.250000000000000000
  0.000000000000000000   0.750000000000000000   0.250000000000000000
  0.500000000000000000   0.750000000000000000   0.250000000000000000
  0.000000000000000000   0.250000000000000000   0.750000000000000000
  0.500000000000000000   0.250000000000000000   0.750000000000000000
  0.000000000000000000   0.750000000000000000   0.750000000000000000
  0.500000000000000000   0.750000000000000000   0.750000000000000000
  0.250000000000000000   1.000000000000000000   1.000000000000000000
  0.750000000000000000   1.000000000000000000   1.000000000000000000
  0.250000000000000000   0.500000000000000000   1.000000000000000000
  0.750000000000000000   0.500000000000000000   1.000000000000000000
  0.250000000000000000   1.000000000000000000   0.500000000000000000
  0.750000000000000000   1.000000000000000000   0.500000000000000000
  0.250000000000000000   0.500000000000000000   0.500000000000000000
  0.750000000000000000   0.500000000000000000   0.500000000000000000
  1.000000000000000000   0.250000000000000000   1.000000000000000000
  0.500000000000000000   0.250000000000000000   1.000000000000000000
  1.000000000000000000   0.750000000000000000   1.000000000000000000
  0.500000000000000000   0.750000000000000000   1.000000000000000000
  1.000000000000000000   0.250000000000000000   0.500000000000000000
  0.500000000000000000   0.250000000000000000   0.500000000000000000
  1.000000000000000000   0.750000000000000000   0.500000000000000000
  0.500000000000000000   0.750000000000000000   0.500000000000000000
  1.000000000000000000   1.000000000000000000   0.250000000000000000
  0.500000000000000000   1.000000000000000000   0.250000000000000000
  1.000000000000000000   0.500000000000000000   0.250000000000000000
  0.500000000000000000   0.500000000000000000   0.250000000000000000
  1.000000000000000000   1.000000000000000000   0.750000000000000000
  0.500000000000000000   1.000000000000000000   0.750000000000000000
  1.000000000000000000   0.500000000000000000   0.750000000000000000
  0.500000000000000000   0.500000000000000000   0.750000000000000000
  0.250000000000000000   0.250000000000000000   0.250000000000000000
  0.750000000000000000   0.250000000000000000   0.250000000000000000
  0.250000000000000000   0.750000000000000000   0.250000000000000000
  0.750000000000000000   0.750000000000000000   0.250000000000000000
  0.250000000000000000   0.250000000000000000   0.750000000000000000
  0.750000000000000000   0.250000000000000000   0.750000000000000000
  0.250000000000000000   0.750000000000000000   0.750000000000000000
  0.750000000000000000   0.750000000000000000   0.750000000000000000
 -0.046126992978870324  -0.011833075485258695   0.056036958844481434
  0.051019071379735464  -0.035186983274352254  -0.039931332165511584
  0.007174058902773436   0.069570332259744086   0.022868955703971291
 -0.020498656019823269  -0.007172870725208330  -0.070387498463179987
  0.527360864467426138   0.062776402119817679   0.026849036096415591
  0.535700269764725401  -0.012284303990234096  -0.062846815200237924
  0.425941429583592435   0.003490991321848423  -0.000247903001840102
  0.527768132391083888  -0.054250485655923386   0.041849791048320942
  0.049425132253246767   0.553392164718994550   0.010001766511778682
  0.017468254847297832   0.470253004207712488  -0.065008583787241836
 -0.068997496630531854   0.526990303310574726   0.007525597316604700
 -0.001772143834991839   0.458865642884349390   0.060980494760556961
  0.563607723624950818   0.471130522538410923   0.023620203858197488
  0.484644353614815171   0.473456263646366393  -0.066757190162483104
  0.502042002517896879   0.574157701940369192   0.001952866124739582
  0.449097608946511573   0.470240177840906659   0.044476096593290500
 -0.021547770181189196  -0.039417023810449175   0.558505554004038895
  0.073743613303892883  -0.005261493700834018   0.494106059658506180
 -0.021760457662259716   0.070011832688246137   0.507567876583035371
 -0.040834631749429466  -0.022660664427109952   0.443577738188582094
  0.469458899342170444   0.017127762518378709   0.435183859169107456
  0.471065126576075466  -0.065828313082186979   0.515608680681624798
  0.469707861946569605   0.044704884622407987   0.550380323140347905
  0.574883671985989886   0.000978637472755612   0.501525649606557211
 -0.012560693547404357   0.480858082722930236   0.570312625725509226
 -0.034256361390220272   0.453096483914008974   0.455409415644355831
  0.072881075578571569   0.497006157484409850   0.487487470741766016
 -0.024914251829203246   0.568597513090937423   0.488776958388916771
  0.528540768969796737   0.529727337620491290   0.560869572450703791
  0.501117646056990940   0.426274450351296352   0.500988650390176149
  0.538741158537379805   0.518600119292738193   0.439894818781691066
  0.434284979466656618   0.532032907199459393   0.495901836638425186
  0.238646266845710192   0.322496531437401757  -0.007712415423367622
  0.246561997297474689   0.227563747534090199   0.070385860776140938
  0.317036070496920952   0.229478201074833438  -0.022695832309701684
  0.195999735061383074   0.219672795269379550  -0.039322388449088093
  0.757730138439506873   0.176562905186861074   0.000492337607952984
  0.774452138939152768   0.280149737400673671   0.062319865998944818
  0.678714005973208634   0.269139083667437884  -0.007280689284500618
  0.788466233775355407   0.275898758776306430  -0.057468590665911090
  0.241588399645935203   0.681341530727810896  -0.025856423682632974
  0.192029980040003628   0.793895139452100440  -0.012630907718696543
  0.309466854907716415   0.771073507106641354  -0.037946309570883033
  0.255119272056451130   0.755113226043403474   0.073407668401991186
  0.715586838840072126   0.736378705464555305   0.063115855923242647
  0.721952969418727442   0.702180797241718224  -0.048621588747946420
  0.823775094256647633   0.748201609807076951   0.002386123517604235
  0.728228641119597619   0.817329900952310395  -0.021118085168966880
  0.253860095574439060   0.281174597053772402   0.566611654953822375
  0.176641197464815825   0.243262909289132717   0.504217306466272053
  0.289483455763967445   0.195433368914789907   0.469933778832836602
  0.273095535810565337   0.271922266216658159   0.433857709124112256
  0.710377260720652992   0.301557389754346927   0.465688996616270945
  0.739715553212009214   0.257582039619531133   0.572854429141839372
  0.821294293854712198   0.256541547045690932   0.481116571039920171
  0.724525924534697108   0.183768958952576583   0.479810654195837016
  0.298251679908755896   0.747835170860029819   0.443739114875833229
  0.182448186406558716   0.780088699360990900   0.500054732316782102
  0.258558867037079365   0.790812467227546168   0.561004237659102678
  0.260626916113549545   0.677602905075320838   0.499168158131314876
  0.747144995954041269   0.761909033796768220   0.427243666944021050
  0.746111261728937936   0.679402208660164320   0.520824758709409696
  0.694999188358414788   0.796585306937713344   0.516330763826071903
  0.816752814122000514   0.758782094120325379   0.529577725720036363
  0.274795738935127654  -0.067405484922462261   0.266159045503795433
  0.268010261972080222   0.013565281914608178   0.179756873157759511
  0.281052215590498145   0.049641102174855622   0.294184800000098667
  0.176393261911095389   0.003790538405682661   0.258484586416352857
  0.677230900241832856  -0.009994131413309893   0.257709039573822851
  0.786149722111743054  -0.002408663649504999   0.185806783031838341
  0.782839609393283897  -0.050730824329400216   0.291704076707892834
  0.784271352210465400   0.063307641651337385   0.265136407765949877
  0.280671702699714920   0.433081928756841872   0.243157572014353396
  0.282427602021984137   0.514323152664135974   0.185433904383009912
  0.260861398466959438   0.543997408100903690   0.308226469428408534
  0.177862384062123846   0.509223988238019509   0.261821086762347777
  0.745004254217643602   0.436994576174351612   0.212252233092673021
  0.726444890888635175   0.491683837252222644   0.319383666251439380
  0.699865159117255775   0.548097437747715022   0.226381247469764929
  0.822302227329675950   0.513705086155061275   0.244454443652151215
  0.261965930361712951  -0.016368473900933204   0.678886223685240209
  0.184620591982325416  -0.029495684666810348   0.767031671680693083
  0.249765492010173756   0.072308659091877350   0.764060230145676811
  0.302418339974961370  -0.027288272651965161   0.793516630620046071
  0.676707388121264963   0.000586445330023952   0.737039106246964559
  0.776268925728454962   0.065611805440452836   0.729252348831317954
  0.782179447105371684  -0.053313322100115343   0.711059536542185788
  0.766224769880604950  -0.010639800280687237   0.821338041745942826
  0.264141987718436277   0.572544880761629904   0.750907746795535846
  0.303343225415428908   0.451084898411223567   0.737992495699957729
  0.201900533169712904   0.485664784999862875   0.695834523741301614
  0.225482893818028801   0.477801001303599204   0.815716987111893221
  0.785787975155309404   0.557851937845463386   0.778953535132399955
  0.677869745426263992   0.514725140552095506   0.752851639386220239
  0.759937604280077172   0.442764725830686434   0.794368125883184506
  0.772314474531242912   0.490247816661728897   0.680155183787835571
  0.035877839164533742   0.207289148877827067   0.297241797965585419
 -0.072684929863715525   0.237314573663698097   0.255119376741283876
  0.021325297090683329   0.237113829862516085   0.180371429935189370
  0.013727873304903387   0.320672620005384490   0.266020867535872507
  0.490110872374228179   0.315890972168181683   0.217523220274230017
  0.495730172778011013   0.249463962316677557   0.323549532328490319
  0.567711000514195541   0.244692382149621218   0.219991775321294131
  0.450125407613953032   0.195397191077196775   0.244612583855957022
  0.071366547400524116   0.766685460161483312   0.256008293381123353
 -0.025450967283306650   0.755087588889409855   0.319112006677864879
  0.006085413371382659   0.685532111264170796   0.215356598777451613
 -0.041183009576792350   0.802249764211668714   0.218519984613270296
  0.477285938444649727   0.734668330910986267   0.181371256904759942
  0.481081678139071378   0.695926378973810600   0.296071904645999140
  0.453276352616581057   0.803287715676875291   0.268911105210303425
  0.573296552676562432   0.758277029108207268   0.250256027210765397
 -0.049733960276569233   0.296735006546268165   0.722179298963700811
 -0.002548696194599330   0.262626564163458143   0.822617404781387340
  0.067259185897770773   0.261215618655976367   0.721625177734565248
 -0.015161028340483402   0.180460217354150410   0.731317605614904886
  0.426689180758299536   0.244138779977410403   0.745918823949420107
  0.526841269761150643   0.240641745665134632   0.817930365728017139
  0.527135368328336629   0.316463385879955150   0.733335945989858740
  0.519805719012699674   0.197594871952930823   0.702165627085019506
 -0.039770562641261373   0.793998715840487201   0.706392569076660815
 -0.016577463324469754   0.679193552854323146   0.736763116571330312
 -0.014308151501347366   0.763957582220446629   0.821316847893044155
  0.072294436465385900   0.760363512633482119   0.737207240716712064
  0.490329565723116922   0.739308282295381813   0.677245440021116640
  0.482136861756742030   0.819526677950956461   0.767248372432164039
  0.570259769966318775   0.739778205527303778   0.771169485429866963
  0.456463131969293112   0.701122175820156901   0.784393620640761347
  0.173355594223285725   1.015555751557679631   1.038431391419165628
  0.310841553842692964   0.994825163149665515   1.062593639632752662
  0.270702217385218935   1.060283479669956952   0.940126898995582772
  0.246793550934210681   0.924537253884391674   0.955427598752451313
  0.686151042400031996   1.046119391893550743   1.036889094366670427
  0.802079252736488502   1.055675277116310040   0.956768570302090726
  0.715539123675911548   0.941557210539650136   0.944083465737087235
  0.794445378367748756   0.955178547998138949   1.060573027447930583
  0.249050150973916778   0.583554035772625657   0.974421928783055113
  0.271482642502349270   0.512951852450513002   1.084079050274006084
  0.297020794549650413   0.442005919532904412   0.953881982549592666
  0.165391351187115343   0.478996731432606127   1.004451540857247638
  0.795097865802916415   0.449465086671295144   1.055525305972806249
  0.703646910334007725   0.446628447849426569   0.948998442857912572
  0.802318603675005848   0.550083487351441414   0.950921933077557568
  0.696270944289907656   0.551055000603473344   1.046716998510986096
  0.297025538173101067   1.037296932669455440   0.436764864255420882
  0.192565910995322220   0.945033730102931457   0.463742802771900886
  0.205243449174644821   1.060540946179939326   0.544269932324197625
  0.304196040913819965   0.957730479996872108   0.553966872334505811
  0.734403919912871239   0.941531850862418307   0.563466616176566348
  0.739201502688781376   0.944145717857183264   0.432859892921140577
  0.825918247894732227   1.042694725624370600   0.507421142166245120
  0.700522682081841874   1.072524907922077775   0.507605472161278937
  0.306788802944973904   0.543752978581350188   0.450146662597064262
  0.204110443469095515   0.557025474446028124   0.547567735835531644
  0.292507442840765908   0.445271989844166993   0.553038494269323611
  0.196509311327415753   0.453070204090078199   0.449112132775962791
  0.804317938655205844   0.458309571221346024   0.554282105785173451
  0.700533335836942328   0.441645095290771617   0.457545167111485962
  0.797757930506666213   0.546107086447688683   0.443344313294580461
  0.697665207174669844   0.553701355495552217   0.545321125071298374
  0.991335054769977853   0.189480806354596715   0.937622662570996246
  0.919060081413827890   0.263036193777427596   1.030134810768710718
  1.041790661377526517   0.314252658463198165   0.957863860630112862
  1.055708211413636244   0.225621744051040629   1.063106969948510949
  0.544038459505776117   0.201137229014442726   1.057117897787404059
  0.446667152076125451   0.199403269733489125   0.952566176221061434
  0.556788468789374158   0.290606254321147117   0.947487313992804503
  0.451719562013255027   0.309713904709477406   1.042718086089918561
  1.058934707657618768   0.690598723633219613   0.974589221742934275
  0.949927520483544896   0.733128999142096283   1.069465120460866947
  0.932178260545250881   0.761597778857391883   0.944911699835063179
  1.056687593973344663   0.816180232308585385   1.004385733666375957
  0.579830215466162202   0.784065688719818299   1.011087557668940207
  0.469166577402069518   0.775273291578776336   0.922213930992976549
  0.459739722695527653   0.763636903571426329   1.076862988589989634
  0.505582647978378041   0.663145083614532949   0.988921816473282256
  1.071287222510115544   0.282342823686008437   0.461149194262333917
  0.963501765312603564   0.189702616768331445   0.448496970791876060
  0.943558919793519024   0.315145837522510741   0.514820458176846407
  1.023339039636794512   0.210355226285041191   0.574217794284605954
  0.566118996629069726   0.273498537260251806   0.552391468719076517
  0.461797808419882272   0.176298028581854366   0.526736700040808969
  0.538895779336091119   0.233803018188301681   0.423133336292617512
  0.432644294425652498   0.305515476598638314   0.501648745558112008
  0.942243954748423929   0.810547062465143076   0.524642381575914474
  1.033972790482511783   0.712499891718979317   0.570620735361757836
  1.062853026415088165   0.791070570407902740   0.454863050818980208
  0.961610972419762344   0.687628359056386418   0.451575149625044081
  0.436353255128031914   0.804061772158603416   0.474571323831780523
  0.559710561144290630   0.807742674342958100   0.528246872687178626
  0.527154157835180492   0.697722496885417542   0.435952032180344451
  0.473866479880173663   0.689497775524393175   0.557826814096670343
  1.028171219762982869   0.927525498936171755   0.209212764261524020
  0.929433465271841119   1.032359247318858309   0.210622946252363191
  1.050172480272149267   1.071503826384516911   0.256291899160848935
  0.978787766947089244   0.962317947731951451   0.326636024923840695
  0.554425939511942523   0.957721968337761242   0.303960935793669229
  0.539942011698177571   1.056653992988019874   0.196501385707439635
  0.442209695999987384   1.044846754252950038   0.297767558300729152
  0.458432554957767358   0.940294518270743618   0.202127784045228742
  0.954902949610377250   0.454336111629365325   0.309369486174758734
  1.053620407342443777   0.552212921302484228   0.295757871978747089
  0.946711613222260273   0.546631597669595792   0.198536511766328833
  1.045630415449134265   0.447519686831031327   0.196528005221283941
  0.457951878517963484   0.440676612645713894   0.299125790017031490
  0.442096899967498846   0.548736906567944716   0.206169763524033461
  0.551672439338858567   0.457263785540563572   0.193819392868022911
  0.548847259492934780   0.554224067073389115   0.298562902966203081
  0.946030517100879487   0.954444481982835824   0.800799137231397173
  1.041671986819967088   0.945015425154379307   0.696225189042162018
  1.058824855722719560   1.043083956019188241   0.798268874233886372
  0.952049453041788341   1.056417128554484552   0.703365491738609516
  0.552824031972465657   1.045169026439057403   0.803116174039887998
  0.448961754790700551   0.948121402573001038   0.798823259099207927
  0.545902009142873013   0.950741151829154751   0.694063129972203319
  0.451419766306753789   1.056726822464219673   0.704100779778658148
  1.046558617063579000   0.456041925260123826   0.809464088681060345
  0.937545416931975351   0.544986756057156629   0.790971821376527551
  0.966038462355487737   0.445048194843061962   0.690981908159208902
  1.050703948482318850   0.557257725007823335   0.707567046684257961
  0.445031367709495806   0.452994534210242328   0.700934910789013377
  0.538787847013144638   0.447949168574656331   0.808914159832431423
  0.457730558572889024   0.563338514150980796   0.792272701992452366
  0.560673855224221418   0.534676799316182283   0.697200653109933510
  0.214312723539930999   0.173662451608757595   0.272680091643704103
  0.310896531184003289   0.286110250704014357   0.301616697331159145
  0.178627020056980446   0.300871305462315608   0.248307393168929219
  0.295437228966654586   0.233901300090733205   0.176222757385906648
  0.705800051191989075   0.302489746113786095   0.304032750257932805
  0.806826436158180060   0.202743291917033192   0.297175340204637428
  0.795779320474692575   0.297603283168600297   0.192450560131039644
  0.693716251359863034   0.196975121641105783   0.209394232837429445
  0.301478485323879497   0.734900695128842374   0.181660632873450578
  0.285632367631025508   0.813853850145546787   0.297848659522352566
  0.235655458293654169   0.670578619901167849   0.284505075546834241
  0.169736423059073355   0.762348595770353965   0.217268749019196905
  0.695948522269097869   0.705010665586832230   0.302169156155329799
  0.799225804991611666   0.801846241675326366   0.301018753204556011
  0.701854773658453834   0.796850393512219535   0.193971901280075743
  0.801269841574367203   0.697364814336084882   0.202431384023573163
  0.246825263899357966   0.330489594377348817   0.783694926100310774
  0.184086152100918027   0.227093550061329114   0.695866246602999894
  0.258444921220876422   0.204566521098847959   0.824133297974304568
  0.313491897819209109   0.238550109910684177   0.690563845013708488
  0.708858320565426858   0.302494602499869147   0.693172847688869442
  0.798128297208714810   0.298889728275068156   0.804669274873386908
  0.802063927627192474   0.194452845002567959   0.706041818673376675
  0.690492721147002553   0.204211665012684535   0.794728826787952425
  0.298145047636637961   0.804431168152594966   0.701801064326514012
  0.201981728681174283   0.698361491397271217   0.697318871820064023
  0.196693787629462685   0.796391444349530464   0.801978311159197488
  0.302545857180730127   0.700086556652046887   0.799050697674901778
  0.684883299207300844   0.742660276523835816   0.692221087914688282
  0.791674707129976785   0.673442587281885441   0.744096239868470843
  0.698654594201351342   0.777179673309766228   0.815635732604942598
  0.803308939709990733   0.819054155460373856   0.751564622939552507
